(set-logic QF_BV)
(declare-fun _substvar_626_ () (_ BitVec 8))
(declare-fun _substvar_635_ () (_ BitVec 32))
(declare-fun _substvar_633_ () (_ BitVec 8))
(declare-fun _substvar_552_ () (_ BitVec 16))
(declare-fun _substvar_428_ () (_ BitVec 16))
(assert (let ( (?v_15 ((_ zero_extend 24) _substvar_626_)) (?v_27 ((_ zero_extend 16) _substvar_428_))) (let ((?v_36 (bvadd ?v_27 (bvsub (_ bv4294967295 32) ?v_15)))) (let ((?v_39 (bvadd ?v_36 (bvsub (_ bv4294967295 32) (_ bv0 32))))) (let ((?v_42 (bvadd ?v_39 (_ bv0 32))) (?v_18 ((_ zero_extend 24) _substvar_633_))) (let ((?v_41 (bvadd ?v_42 (bvsub (_ bv4294967295 32) ?v_18))) (?v_10 ((_ zero_extend 16) _substvar_552_))) (let ((?v_6 (bvadd (bvadd (_ bv0 32) (_ bv1581277 32)) (_ bv0 32)))) (let ((?v_9 (bvadd ?v_6 (_ bv6 32)))) (let ((?v_11 (bvadd (bvadd ?v_9 (_ bv0 32)) (_ bv2 32)))) (let ((?v_13 (bvadd ?v_11 ?v_10))) (let ((?v_19 (bvadd ?v_13 (_ bv6 32)))) (let ((?v_21 (bvadd ?v_19 (_ bv0 32)))) (let ((?v_26 (bvadd ?v_21 (_ bv2 32)))) (let ( (?v_38 (bvadd ?v_41 (_ bv0 32)))) (let ((?v_35 (bvadd ?v_38 (bvsub (_ bv4294967295 32) (_ bv0 32))))) (let ((?v_32 (bvadd ?v_35 (_ bv0 32)))) (let ((?v_31 (bvadd ?v_32 (_ bv0 32)))) (let ((?v_5 (bvadd (bvadd (_ bv0 32) (_ bv1581286 32)) (_ bv0 32)))) (let ((?v_12 (bvadd (bvadd (bvadd (bvadd ?v_5 (_ bv15 32)) (_ bv0 32)) (_ bv2 32)) ?v_10))) (and true true true true true true (bvsle (_ bv1040 32) (bvsub (bvadd (bvadd (bvadd (bvadd (bvadd (bvadd (bvadd (bvadd (bvadd (bvadd ?v_12 (_ bv7 32)) _substvar_635_) (_ bv3 32)) ?v_15) (_ bv0 32)) (_ bv0 32)) (_ bv0 32)) (_ bv0 32)) (_ bv0 32)) ?v_18) (_ bv1581096 32))) true true true true true true true true true true true true true true true true true true true true true (= _substvar_635_ (_ bv1 32)) (= (bvadd ?v_31 (_ bv0 32)) (_ bv0 32)) (bvule (bvsub (bvadd ?v_26 ?v_27) (_ bv1581256 32)) (_ bv846 32)) true true true true true true true true true true true true true true true true true true true true true true true true true))))))))))))))))))))
(check-sat)
(exit)
